\ LP format - for model browsing. Use MPS format to capture full model detail.
Minimize
  26 x_49_0 + 416 x_49_1 + 318 x_49_2 + 351 x_49_3 + 458 x_49_4 + 445 x_49_5
   + 324 x_49_6 + 23 x_49_7 + 287 x_49_8 + 156 x_49_9 + 236 x_49_10
   + 346 x_49_11 + 72 x_49_12 + 266 x_49_13 + 270 x_49_14 + 216 x_49_15
   + 129 x_49_16 + 249 x_49_17 + 509 x_49_18 + 196 x_49_19 + 263 x_49_20
   + 282 x_49_21 + 242 x_49_22 + 381 x_49_23 + 67 x_49_24 + 336 x_49_25
   + 331 x_49_26 + 358 x_49_27 + 354 x_49_28 + 44 x_49_29 + 452 x_49_30
   + 384 x_49_31 + 341 x_49_32 + 339 x_49_33 + 422 x_49_34 + 165 x_49_35
   + 67 x_49_36 + 506 x_49_37 + 332 x_49_38 + 349 x_49_39 + 413 x_49_40
   + 407 x_49_41 + 235 x_49_42 + 378 x_49_43 + 207 x_49_44 + 390 x_49_45
   + 492 x_49_46 + 216 x_49_47 + 111 x_49_48 + 118 x_49_50 + 132 x_49_51
   + 83 x_49_52 + 187 x_49_53 + 242 x_49_54 + 243 x_49_55 + 424 x_49_56
   + 315 x_49_57 + 310 x_49_58 + 393 x_49_59 + 285 x_49_60 + 318 x_49_61
   + 269 x_49_62 + 81 x_49_63 + 73 x_49_64 + 314 x_49_65 + 510 x_49_66
   + 315 x_49_67 + 54 x_49_68 + 457 x_49_69 + 190 x_49_70 + 86 x_49_71
   + 242 x_49_72 + 350 x_49_73 + 369 x_49_74 + 503 x_49_75 + 204 x_49_76
   + 328 x_49_77 + 285 x_49_78 + 220 x_49_79 + 114 x_49_80 + 44 x_49_81
   + 395 x_49_82 + 345 x_49_83 + 328 x_49_84 + 416 x_49_85 + 411 x_49_86
   + 198 x_49_87 + 161 x_49_88 + 360 x_49_89 + 334 x_49_90 + 73 x_49_91
   + 422 x_49_92 + 296 x_49_93 + 367 x_49_94 + 164 x_49_95 + 28 x_49_96
   + 378 x_49_97 + 272 x_49_98 + 315 x_49_99 + 425 x_5_0 + 186 x_5_1
   + 404 x_5_2 + 207 x_5_3 + 45 x_5_4 + 352 x_5_6 + 467 x_5_7 + 307 x_5_8
   + 389 x_5_9 + 249 x_5_10 + 98 x_5_11 + 490 x_5_12 + 202 x_5_13
   + 230 x_5_14 + 332 x_5_15 + 409 x_5_16 + 233 x_5_17 + 102 x_5_18
   + 278 x_5_19 + 191 x_5_20 + 403 x_5_21 + 203 x_5_22 + 154 x_5_23
   + 395 x_5_24 + 324 x_5_25 + 114 x_5_26 + 228 x_5_27 + 103 x_5_28
   + 438 x_5_29 + 67 x_5_30 + 178 x_5_31 + 334 x_5_32 + 159 x_5_33
   + 332 x_5_34 + 377 x_5_35 + 482 x_5_36 + 78 x_5_37 + 113 x_5_38
   + 280 x_5_39 + 403 x_5_40 + 271 x_5_41 + 239 x_5_42 + 324 x_5_43
   + 240 x_5_44 + 263 x_5_45 + 49 x_5_46 + 284 x_5_47 + 348 x_5_48
   + 445 x_5_49 + 344 x_5_50 + 422 x_5_51 + 526 x_5_52 + 283 x_5_53
   + 355 x_5_54 + 358 x_5_55 + 82 x_5_56 + 284 x_5_57 + 314 x_5_58
   + 280 x_5_59 + 173 x_5_60 + 259 x_5_61 + 300 x_5_62 + 391 x_5_63
   + 517 x_5_64 + 149 x_5_65 + 84 x_5_66 + 194 x_5_67 + 491 x_5_68
   + 117 x_5_69 + 256 x_5_70 + 403 x_5_71 + 361 x_5_72 + 255 x_5_73
   + 170 x_5_74 + 90 x_5_75 + 301 x_5_76 + 136 x_5_77 + 243 x_5_78
   + 317 x_5_79 + 411 x_5_80 + 432 x_5_81 + 298 x_5_82 + 397 x_5_83
   + 315 x_5_84 + 43 x_5_85 + 404 x_5_86 + 266 x_5_87 + 410 x_5_88
   + 260 x_5_89 + 233 x_5_90 + 388 x_5_91 + 181 x_5_92 + 166 x_5_93
   + 256 x_5_94 + 389 x_5_95 + 435 x_5_96 + 280 x_5_97 + 407 x_5_98
   + 222 x_5_99 + 324 x_73_0 + 386 x_73_1 + 499 x_73_2 + 362 x_73_3
   + 231 x_73_4 + 255 x_73_5 + 100 x_73_6 + 372 x_73_7 + 405 x_73_8
   + 218 x_73_9 + 307 x_73_10 + 213 x_73_11 + 358 x_73_12 + 275 x_73_13
   + 97 x_73_14 + 381 x_73_15 + 248 x_73_16 + 299 x_73_17 + 357 x_73_18
   + 162 x_73_19 + 248 x_73_20 + 478 x_73_21 + 205 x_73_22 + 337 x_73_23
   + 338 x_73_24 + 448 x_73_25 + 196 x_73_26 + 384 x_73_27 + 253 x_73_28
   + 319 x_73_29 + 208 x_73_30 + 359 x_73_31 + 79 x_73_32 + 305 x_73_33
   + 499 x_73_34 + 205 x_73_35 + 412 x_73_36 + 264 x_73_37 + 201 x_73_38
   + 421 x_73_39 + 546 x_73_40 + 447 x_73_41 + 291 x_73_42 + 72 x_73_43
   + 240 x_73_44 + 41 x_73_45 + 278 x_73_46 + 135 x_73_47 + 311 x_73_48
   + 350 x_73_49 + 234 x_73_50 + 408 x_73_51 + 428 x_73_52 + 171 x_73_53
   + 141 x_73_54 + 421 x_73_55 + 307 x_73_56 + 403 x_73_57 + 425 x_73_58
   + 48 x_73_59 + 255 x_73_60 + 33 x_73_61 + 388 x_73_62 + 344 x_73_63
   + 416 x_73_64 + 262 x_73_65 + 338 x_73_66 + 320 x_73_67 + 374 x_73_68
   + 176 x_73_69 + 208 x_73_70 + 272 x_73_71 + 423 x_73_72 + 342 x_73_74
   + 346 x_73_75 + 340 x_73_76 + 146 x_73_77 + 71 x_73_78 + 134 x_73_79
   + 389 x_73_80 + 365 x_73_81 + 461 x_73_82 + 508 x_73_83 + 63 x_73_84
   + 212 x_73_85 + 545 x_73_86 + 285 x_73_87 + 230 x_73_88 + 11 x_73_89
   + 30 x_73_90 + 334 x_73_91 + 385 x_73_92 + 261 x_73_93 + 16 x_73_94
   + 213 x_73_95 + 328 x_73_96 + 36 x_73_97 + 476 x_73_98 + 55 x_73_99
   + 335 x_25_0 + 162 x_25_1 + 86 x_25_2 + 117 x_25_3 + 365 x_25_4
   + 324 x_25_5 + 499 x_25_6 + 348 x_25_7 + 52 x_25_8 + 407 x_25_9
   + 147 x_25_10 + 267 x_25_11 + 408 x_25_12 + 173 x_25_13 + 358 x_25_14
   + 120 x_25_15 + 403 x_25_16 + 151 x_25_17 + 314 x_25_18 + 329 x_25_19
   + 200 x_25_20 + 102 x_25_21 + 245 x_25_22 + 172 x_25_23 + 270 x_25_24
   + 273 x_25_26 + 98 x_25_27 + 233 x_25_28 + 363 x_25_29 + 378 x_25_30
   + 152 x_25_31 + 497 x_25_32 + 169 x_25_33 + 87 x_25_34 + 404 x_25_35
   + 323 x_25_36 + 401 x_25_37 + 269 x_25_38 + 47 x_25_39 + 99 x_25_40
   + 95 x_25_41 + 162 x_25_42 + 515 x_25_43 + 220 x_25_44 + 480 x_25_45
   + 366 x_25_46 + 360 x_25_47 + 235 x_25_48 + 336 x_25_49 + 323 x_25_50
   + 223 x_25_51 + 385 x_25_52 + 324 x_25_53 + 445 x_25_54 + 99 x_25_55
   + 249 x_25_56 + 45 x_25_57 + 27 x_25_58 + 494 x_25_59 + 196 x_25_60
   + 427 x_25_61 + 72 x_25_62 + 255 x_25_63 + 385 x_25_64 + 199 x_25_65
   + 334 x_25_66 + 138 x_25_67 + 389 x_25_68 + 417 x_25_69 + 264 x_25_70
   + 364 x_25_71 + 102 x_25_72 + 448 x_25_73 + 155 x_25_74 + 317 x_25_75
   + 142 x_25_76 + 316 x_25_77 + 386 x_25_78 + 396 x_25_79 + 231 x_25_80
   + 296 x_25_81 + 69 x_25_82 + 74 x_25_83 + 476 x_25_84 + 330 x_25_85
   + 97 x_25_86 + 184 x_25_87 + 427 x_25_88 + 459 x_25_89 + 418 x_25_90
   + 264 x_25_91 + 171 x_25_92 + 193 x_25_93 + 460 x_25_94 + 413 x_25_95
   + 349 x_25_96 + 484 x_25_97 + 112 x_25_98 + 393 x_25_99 + 303 x_67_0
   + 102 x_67_1 + 212 x_67_2 + 46 x_67_3 + 232 x_67_4 + 194 x_67_5
   + 384 x_67_6 + 333 x_67_7 + 113 x_67_8 + 330 x_67_9 + 79 x_67_10
   + 128 x_67_11 + 378 x_67_12 + 58 x_67_13 + 238 x_67_14 + 145 x_67_15
   + 336 x_67_16 + 66 x_67_17 + 213 x_67_18 + 229 x_67_19 + 80 x_67_20
   + 209 x_67_21 + 130 x_67_22 + 68 x_67_23 + 252 x_67_24 + 138 x_67_25
   + 135 x_67_26 + 65 x_67_27 + 96 x_67_28 + 326 x_67_29 + 243 x_67_30
   + 69 x_67_31 + 378 x_67_32 + 36 x_67_33 + 179 x_67_34 + 323 x_67_35
   + 331 x_67_36 + 272 x_67_37 + 131 x_67_38 + 103 x_67_39 + 231 x_67_40
   + 130 x_67_41 + 80 x_67_42 + 390 x_67_43 + 127 x_67_44 + 349 x_67_45
   + 240 x_67_46 + 256 x_67_47 + 204 x_67_48 + 315 x_67_49 + 254 x_67_50
   + 250 x_67_51 + 386 x_67_52 + 227 x_67_53 + 344 x_67_54 + 166 x_67_55
   + 132 x_67_56 + 94 x_67_57 + 123 x_67_58 + 363 x_67_59 + 67 x_67_60
   + 303 x_67_61 + 106 x_67_62 + 242 x_67_63 + 381 x_67_64 + 61 x_67_65
   + 225 x_67_66 + 368 x_67_68 + 280 x_67_69 + 170 x_67_70 + 308 x_67_71
   + 169 x_67_72 + 320 x_67_73 + 54 x_67_74 + 212 x_67_75 + 125 x_67_76
   + 181 x_67_77 + 265 x_67_78 + 295 x_67_79 + 245 x_67_80 + 288 x_67_81
   + 141 x_67_82 + 209 x_67_83 + 356 x_67_84 + 194 x_67_85 + 231 x_67_86
   + 118 x_67_87 + 352 x_67_88 + 330 x_67_89 + 290 x_67_90 + 244 x_67_91
   + 108 x_67_92 + 59 x_67_93 + 330 x_67_94 + 334 x_67_95 + 317 x_67_96
   + 355 x_67_97 + 213 x_67_98 + 266 x_67_99 + 162 x_53_0 + 322 x_53_1
   + 354 x_53_2 + 273 x_53_3 + 286 x_53_4 + 283 x_53_5 + 182 x_53_6
   + 210 x_53_7 + 273 x_53_8 + 110 x_53_9 + 177 x_53_10 + 191 x_53_11
   + 214 x_53_12 + 169 x_53_13 + 83 x_53_14 + 230 x_53_15 + 126 x_53_16
   + 177 x_53_17 + 366 x_53_18 + 9 x_53_19 + 149 x_53_20 + 328 x_53_21
   + 102 x_53_22 + 276 x_53_23 + 167 x_53_24 + 324 x_53_25 + 172 x_53_26
   + 290 x_53_27 + 214 x_53_28 + 165 x_53_29 + 275 x_53_30 + 289 x_53_31
   + 188 x_53_32 + 232 x_53_33 + 394 x_53_34 + 100 x_53_35 + 244 x_53_36
   + 333 x_53_37 + 174 x_53_38 + 311 x_53_39 + 421 x_53_40 + 354 x_53_41
   + 163 x_53_42 + 217 x_53_43 + 105 x_53_44 + 212 x_53_45 + 326 x_53_46
   + 41 x_53_47 + 142 x_53_48 + 187 x_53_49 + 70 x_53_50 + 238 x_53_51
   + 269 x_53_52 + 121 x_53_54 + 271 x_53_55 + 288 x_53_56 + 283 x_53_57
   + 297 x_53_58 + 218 x_53_59 + 167 x_53_60 + 140 x_53_61 + 254 x_53_62
   + 173 x_53_63 + 258 x_53_64 + 192 x_53_65 + 360 x_53_66 + 227 x_53_67
   + 222 x_53_68 + 273 x_53_69 + 60 x_53_70 + 124 x_53_71 + 272 x_53_72
   + 171 x_53_73 + 272 x_53_74 + 358 x_53_75 + 191 x_53_76 + 151 x_53_77
   + 102 x_53_78 + 73 x_53_79 + 218 x_53_80 + 196 x_53_81 + 357 x_53_82
   + 369 x_53_83 + 169 x_53_84 + 246 x_53_85 + 419 x_53_86 + 140 x_53_87
   + 132 x_53_88 + 182 x_53_89 + 150 x_53_90 + 163 x_53_91 + 326 x_53_92
   + 179 x_53_93 + 187 x_53_94 + 112 x_53_95 + 169 x_53_96 + 203 x_53_97
   + 323 x_53_98 + 129 x_53_99
Subject To
 c1_0: x_49_0 + x_5_0 + x_73_0 + x_25_0 + x_67_0 + x_53_0 = 1
 c1_1: x_49_1 + x_5_1 + x_73_1 + x_25_1 + x_67_1 + x_53_1 = 1
 c1_2: x_49_2 + x_5_2 + x_73_2 + x_25_2 + x_67_2 + x_53_2 = 1
 c1_3: x_49_3 + x_5_3 + x_73_3 + x_25_3 + x_67_3 + x_53_3 = 1
 c1_4: x_49_4 + x_5_4 + x_73_4 + x_25_4 + x_67_4 + x_53_4 = 1
 c1_5: x_49_5 + x_5_5 + x_73_5 + x_25_5 + x_67_5 + x_53_5 = 1
 c1_6: x_49_6 + x_5_6 + x_73_6 + x_25_6 + x_67_6 + x_53_6 = 1
 c1_7: x_49_7 + x_5_7 + x_73_7 + x_25_7 + x_67_7 + x_53_7 = 1
 c1_8: x_49_8 + x_5_8 + x_73_8 + x_25_8 + x_67_8 + x_53_8 = 1
 c1_9: x_49_9 + x_5_9 + x_73_9 + x_25_9 + x_67_9 + x_53_9 = 1
 c1_10: x_49_10 + x_5_10 + x_73_10 + x_25_10 + x_67_10 + x_53_10 = 1
 c1_11: x_49_11 + x_5_11 + x_73_11 + x_25_11 + x_67_11 + x_53_11 = 1
 c1_12: x_49_12 + x_5_12 + x_73_12 + x_25_12 + x_67_12 + x_53_12 = 1
 c1_13: x_49_13 + x_5_13 + x_73_13 + x_25_13 + x_67_13 + x_53_13 = 1
 c1_14: x_49_14 + x_5_14 + x_73_14 + x_25_14 + x_67_14 + x_53_14 = 1
 c1_15: x_49_15 + x_5_15 + x_73_15 + x_25_15 + x_67_15 + x_53_15 = 1
 c1_16: x_49_16 + x_5_16 + x_73_16 + x_25_16 + x_67_16 + x_53_16 = 1
 c1_17: x_49_17 + x_5_17 + x_73_17 + x_25_17 + x_67_17 + x_53_17 = 1
 c1_18: x_49_18 + x_5_18 + x_73_18 + x_25_18 + x_67_18 + x_53_18 = 1
 c1_19: x_49_19 + x_5_19 + x_73_19 + x_25_19 + x_67_19 + x_53_19 = 1
 c1_20: x_49_20 + x_5_20 + x_73_20 + x_25_20 + x_67_20 + x_53_20 = 1
 c1_21: x_49_21 + x_5_21 + x_73_21 + x_25_21 + x_67_21 + x_53_21 = 1
 c1_22: x_49_22 + x_5_22 + x_73_22 + x_25_22 + x_67_22 + x_53_22 = 1
 c1_23: x_49_23 + x_5_23 + x_73_23 + x_25_23 + x_67_23 + x_53_23 = 1
 c1_24: x_49_24 + x_5_24 + x_73_24 + x_25_24 + x_67_24 + x_53_24 = 1
 c1_25: x_49_25 + x_5_25 + x_73_25 + x_25_25 + x_67_25 + x_53_25 = 1
 c1_26: x_49_26 + x_5_26 + x_73_26 + x_25_26 + x_67_26 + x_53_26 = 1
 c1_27: x_49_27 + x_5_27 + x_73_27 + x_25_27 + x_67_27 + x_53_27 = 1
 c1_28: x_49_28 + x_5_28 + x_73_28 + x_25_28 + x_67_28 + x_53_28 = 1
 c1_29: x_49_29 + x_5_29 + x_73_29 + x_25_29 + x_67_29 + x_53_29 = 1
 c1_30: x_49_30 + x_5_30 + x_73_30 + x_25_30 + x_67_30 + x_53_30 = 1
 c1_31: x_49_31 + x_5_31 + x_73_31 + x_25_31 + x_67_31 + x_53_31 = 1
 c1_32: x_49_32 + x_5_32 + x_73_32 + x_25_32 + x_67_32 + x_53_32 = 1
 c1_33: x_49_33 + x_5_33 + x_73_33 + x_25_33 + x_67_33 + x_53_33 = 1
 c1_34: x_49_34 + x_5_34 + x_73_34 + x_25_34 + x_67_34 + x_53_34 = 1
 c1_35: x_49_35 + x_5_35 + x_73_35 + x_25_35 + x_67_35 + x_53_35 = 1
 c1_36: x_49_36 + x_5_36 + x_73_36 + x_25_36 + x_67_36 + x_53_36 = 1
 c1_37: x_49_37 + x_5_37 + x_73_37 + x_25_37 + x_67_37 + x_53_37 = 1
 c1_38: x_49_38 + x_5_38 + x_73_38 + x_25_38 + x_67_38 + x_53_38 = 1
 c1_39: x_49_39 + x_5_39 + x_73_39 + x_25_39 + x_67_39 + x_53_39 = 1
 c1_40: x_49_40 + x_5_40 + x_73_40 + x_25_40 + x_67_40 + x_53_40 = 1
 c1_41: x_49_41 + x_5_41 + x_73_41 + x_25_41 + x_67_41 + x_53_41 = 1
 c1_42: x_49_42 + x_5_42 + x_73_42 + x_25_42 + x_67_42 + x_53_42 = 1
 c1_43: x_49_43 + x_5_43 + x_73_43 + x_25_43 + x_67_43 + x_53_43 = 1
 c1_44: x_49_44 + x_5_44 + x_73_44 + x_25_44 + x_67_44 + x_53_44 = 1
 c1_45: x_49_45 + x_5_45 + x_73_45 + x_25_45 + x_67_45 + x_53_45 = 1
 c1_46: x_49_46 + x_5_46 + x_73_46 + x_25_46 + x_67_46 + x_53_46 = 1
 c1_47: x_49_47 + x_5_47 + x_73_47 + x_25_47 + x_67_47 + x_53_47 = 1
 c1_48: x_49_48 + x_5_48 + x_73_48 + x_25_48 + x_67_48 + x_53_48 = 1
 c1_49: x_49_49 + x_5_49 + x_73_49 + x_25_49 + x_67_49 + x_53_49 = 1
 c1_50: x_49_50 + x_5_50 + x_73_50 + x_25_50 + x_67_50 + x_53_50 = 1
 c1_51: x_49_51 + x_5_51 + x_73_51 + x_25_51 + x_67_51 + x_53_51 = 1
 c1_52: x_49_52 + x_5_52 + x_73_52 + x_25_52 + x_67_52 + x_53_52 = 1
 c1_53: x_49_53 + x_5_53 + x_73_53 + x_25_53 + x_67_53 + x_53_53 = 1
 c1_54: x_49_54 + x_5_54 + x_73_54 + x_25_54 + x_67_54 + x_53_54 = 1
 c1_55: x_49_55 + x_5_55 + x_73_55 + x_25_55 + x_67_55 + x_53_55 = 1
 c1_56: x_49_56 + x_5_56 + x_73_56 + x_25_56 + x_67_56 + x_53_56 = 1
 c1_57: x_49_57 + x_5_57 + x_73_57 + x_25_57 + x_67_57 + x_53_57 = 1
 c1_58: x_49_58 + x_5_58 + x_73_58 + x_25_58 + x_67_58 + x_53_58 = 1
 c1_59: x_49_59 + x_5_59 + x_73_59 + x_25_59 + x_67_59 + x_53_59 = 1
 c1_60: x_49_60 + x_5_60 + x_73_60 + x_25_60 + x_67_60 + x_53_60 = 1
 c1_61: x_49_61 + x_5_61 + x_73_61 + x_25_61 + x_67_61 + x_53_61 = 1
 c1_62: x_49_62 + x_5_62 + x_73_62 + x_25_62 + x_67_62 + x_53_62 = 1
 c1_63: x_49_63 + x_5_63 + x_73_63 + x_25_63 + x_67_63 + x_53_63 = 1
 c1_64: x_49_64 + x_5_64 + x_73_64 + x_25_64 + x_67_64 + x_53_64 = 1
 c1_65: x_49_65 + x_5_65 + x_73_65 + x_25_65 + x_67_65 + x_53_65 = 1
 c1_66: x_49_66 + x_5_66 + x_73_66 + x_25_66 + x_67_66 + x_53_66 = 1
 c1_67: x_49_67 + x_5_67 + x_73_67 + x_25_67 + x_67_67 + x_53_67 = 1
 c1_68: x_49_68 + x_5_68 + x_73_68 + x_25_68 + x_67_68 + x_53_68 = 1
 c1_69: x_49_69 + x_5_69 + x_73_69 + x_25_69 + x_67_69 + x_53_69 = 1
 c1_70: x_49_70 + x_5_70 + x_73_70 + x_25_70 + x_67_70 + x_53_70 = 1
 c1_71: x_49_71 + x_5_71 + x_73_71 + x_25_71 + x_67_71 + x_53_71 = 1
 c1_72: x_49_72 + x_5_72 + x_73_72 + x_25_72 + x_67_72 + x_53_72 = 1
 c1_73: x_49_73 + x_5_73 + x_73_73 + x_25_73 + x_67_73 + x_53_73 = 1
 c1_74: x_49_74 + x_5_74 + x_73_74 + x_25_74 + x_67_74 + x_53_74 = 1
 c1_75: x_49_75 + x_5_75 + x_73_75 + x_25_75 + x_67_75 + x_53_75 = 1
 c1_76: x_49_76 + x_5_76 + x_73_76 + x_25_76 + x_67_76 + x_53_76 = 1
 c1_77: x_49_77 + x_5_77 + x_73_77 + x_25_77 + x_67_77 + x_53_77 = 1
 c1_78: x_49_78 + x_5_78 + x_73_78 + x_25_78 + x_67_78 + x_53_78 = 1
 c1_79: x_49_79 + x_5_79 + x_73_79 + x_25_79 + x_67_79 + x_53_79 = 1
 c1_80: x_49_80 + x_5_80 + x_73_80 + x_25_80 + x_67_80 + x_53_80 = 1
 c1_81: x_49_81 + x_5_81 + x_73_81 + x_25_81 + x_67_81 + x_53_81 = 1
 c1_82: x_49_82 + x_5_82 + x_73_82 + x_25_82 + x_67_82 + x_53_82 = 1
 c1_83: x_49_83 + x_5_83 + x_73_83 + x_25_83 + x_67_83 + x_53_83 = 1
 c1_84: x_49_84 + x_5_84 + x_73_84 + x_25_84 + x_67_84 + x_53_84 = 1
 c1_85: x_49_85 + x_5_85 + x_73_85 + x_25_85 + x_67_85 + x_53_85 = 1
 c1_86: x_49_86 + x_5_86 + x_73_86 + x_25_86 + x_67_86 + x_53_86 = 1
 c1_87: x_49_87 + x_5_87 + x_73_87 + x_25_87 + x_67_87 + x_53_87 = 1
 c1_88: x_49_88 + x_5_88 + x_73_88 + x_25_88 + x_67_88 + x_53_88 = 1
 c1_89: x_49_89 + x_5_89 + x_73_89 + x_25_89 + x_67_89 + x_53_89 = 1
 c1_90: x_49_90 + x_5_90 + x_73_90 + x_25_90 + x_67_90 + x_53_90 = 1
 c1_91: x_49_91 + x_5_91 + x_73_91 + x_25_91 + x_67_91 + x_53_91 = 1
 c1_92: x_49_92 + x_5_92 + x_73_92 + x_25_92 + x_67_92 + x_53_92 = 1
 c1_93: x_49_93 + x_5_93 + x_73_93 + x_25_93 + x_67_93 + x_53_93 = 1
 c1_94: x_49_94 + x_5_94 + x_73_94 + x_25_94 + x_67_94 + x_53_94 = 1
 c1_95: x_49_95 + x_5_95 + x_73_95 + x_25_95 + x_67_95 + x_53_95 = 1
 c1_96: x_49_96 + x_5_96 + x_73_96 + x_25_96 + x_67_96 + x_53_96 = 1
 c1_97: x_49_97 + x_5_97 + x_73_97 + x_25_97 + x_67_97 + x_53_97 = 1
 c1_98: x_49_98 + x_5_98 + x_73_98 + x_25_98 + x_67_98 + x_53_98 = 1
 c1_99: x_49_99 + x_5_99 + x_73_99 + x_25_99 + x_67_99 + x_53_99 = 1
 c2a_0: 513 x_49_0 + 517 x_49_1 + 500 x_49_2 + 506 x_49_3 + 511 x_49_4
   + 507 x_49_5 + 506 x_49_6 + 520 x_49_7 + 505 x_49_8 + 529 x_49_9
   + 465 x_49_10 + 513 x_49_11 + 542 x_49_12 + 519 x_49_13 + 493 x_49_14
   + 499 x_49_15 + 486 x_49_16 + 514 x_49_17 + 489 x_49_18 + 540 x_49_19
   + 512 x_49_20 + 533 x_49_21 + 503 x_49_22 + 508 x_49_23 + 498 x_49_24
   + 498 x_49_25 + 506 x_49_26 + 494 x_49_27 + 515 x_49_28 + 498 x_49_29
   + 482 x_49_30 + 505 x_49_31 + 505 x_49_32 + 562 x_49_33 + 530 x_49_34
   + 536 x_49_35 + 490 x_49_36 + 515 x_49_37 + 492 x_49_38 + 496 x_49_39
   + 514 x_49_40 + 516 x_49_41 + 529 x_49_42 + 488 x_49_43 + 465 x_49_44
   + 500 x_49_45 + 526 x_49_46 + 497 x_49_47 + 507 x_49_48 + 546 x_49_49
   + 512 x_49_50 + 502 x_49_51 + 517 x_49_52 + 549 x_49_53 + 494 x_49_54
   + 533 x_49_55 + 513 x_49_56 + 513 x_49_57 + 476 x_49_58 + 530 x_49_59
   + 493 x_49_60 + 537 x_49_61 + 467 x_49_62 + 520 x_49_63 + 473 x_49_64
   + 491 x_49_65 + 487 x_49_66 + 544 x_49_67 + 544 x_49_68 + 504 x_49_69
   + 509 x_49_70 + 509 x_49_71 + 515 x_49_72 + 522 x_49_73 + 491 x_49_74
   + 531 x_49_75 + 515 x_49_76 + 536 x_49_77 + 505 x_49_78 + 547 x_49_79
   + 510 x_49_80 + 475 x_49_81 + 537 x_49_82 + 526 x_49_83 + 484 x_49_84
   + 481 x_49_85 + 493 x_49_86 + 459 x_49_87 + 515 x_49_88 + 522 x_49_89
   + 498 x_49_90 + 533 x_49_91 + 514 x_49_92 + 563 x_49_93 + 544 x_49_94
   + 528 x_49_95 + 542 x_49_96 + 529 x_49_97 + 524 x_49_98 + 506 x_49_99
   >= 8091.15
 c2b_0: 513 x_49_0 + 517 x_49_1 + 500 x_49_2 + 506 x_49_3 + 511 x_49_4
   + 507 x_49_5 + 506 x_49_6 + 520 x_49_7 + 505 x_49_8 + 529 x_49_9
   + 465 x_49_10 + 513 x_49_11 + 542 x_49_12 + 519 x_49_13 + 493 x_49_14
   + 499 x_49_15 + 486 x_49_16 + 514 x_49_17 + 489 x_49_18 + 540 x_49_19
   + 512 x_49_20 + 533 x_49_21 + 503 x_49_22 + 508 x_49_23 + 498 x_49_24
   + 498 x_49_25 + 506 x_49_26 + 494 x_49_27 + 515 x_49_28 + 498 x_49_29
   + 482 x_49_30 + 505 x_49_31 + 505 x_49_32 + 562 x_49_33 + 530 x_49_34
   + 536 x_49_35 + 490 x_49_36 + 515 x_49_37 + 492 x_49_38 + 496 x_49_39
   + 514 x_49_40 + 516 x_49_41 + 529 x_49_42 + 488 x_49_43 + 465 x_49_44
   + 500 x_49_45 + 526 x_49_46 + 497 x_49_47 + 507 x_49_48 + 546 x_49_49
   + 512 x_49_50 + 502 x_49_51 + 517 x_49_52 + 549 x_49_53 + 494 x_49_54
   + 533 x_49_55 + 513 x_49_56 + 513 x_49_57 + 476 x_49_58 + 530 x_49_59
   + 493 x_49_60 + 537 x_49_61 + 467 x_49_62 + 520 x_49_63 + 473 x_49_64
   + 491 x_49_65 + 487 x_49_66 + 544 x_49_67 + 544 x_49_68 + 504 x_49_69
   + 509 x_49_70 + 509 x_49_71 + 515 x_49_72 + 522 x_49_73 + 491 x_49_74
   + 531 x_49_75 + 515 x_49_76 + 536 x_49_77 + 505 x_49_78 + 547 x_49_79
   + 510 x_49_80 + 475 x_49_81 + 537 x_49_82 + 526 x_49_83 + 484 x_49_84
   + 481 x_49_85 + 493 x_49_86 + 459 x_49_87 + 515 x_49_88 + 522 x_49_89
   + 498 x_49_90 + 533 x_49_91 + 514 x_49_92 + 563 x_49_93 + 544 x_49_94
   + 528 x_49_95 + 542 x_49_96 + 529 x_49_97 + 524 x_49_98 + 506 x_49_99
   <= 8942.85
 c2a_1: 513 x_5_0 + 517 x_5_1 + 500 x_5_2 + 506 x_5_3 + 511 x_5_4
   + 507 x_5_5 + 506 x_5_6 + 520 x_5_7 + 505 x_5_8 + 529 x_5_9 + 465 x_5_10
   + 513 x_5_11 + 542 x_5_12 + 519 x_5_13 + 493 x_5_14 + 499 x_5_15
   + 486 x_5_16 + 514 x_5_17 + 489 x_5_18 + 540 x_5_19 + 512 x_5_20
   + 533 x_5_21 + 503 x_5_22 + 508 x_5_23 + 498 x_5_24 + 498 x_5_25
   + 506 x_5_26 + 494 x_5_27 + 515 x_5_28 + 498 x_5_29 + 482 x_5_30
   + 505 x_5_31 + 505 x_5_32 + 562 x_5_33 + 530 x_5_34 + 536 x_5_35
   + 490 x_5_36 + 515 x_5_37 + 492 x_5_38 + 496 x_5_39 + 514 x_5_40
   + 516 x_5_41 + 529 x_5_42 + 488 x_5_43 + 465 x_5_44 + 500 x_5_45
   + 526 x_5_46 + 497 x_5_47 + 507 x_5_48 + 546 x_5_49 + 512 x_5_50
   + 502 x_5_51 + 517 x_5_52 + 549 x_5_53 + 494 x_5_54 + 533 x_5_55
   + 513 x_5_56 + 513 x_5_57 + 476 x_5_58 + 530 x_5_59 + 493 x_5_60
   + 537 x_5_61 + 467 x_5_62 + 520 x_5_63 + 473 x_5_64 + 491 x_5_65
   + 487 x_5_66 + 544 x_5_67 + 544 x_5_68 + 504 x_5_69 + 509 x_5_70
   + 509 x_5_71 + 515 x_5_72 + 522 x_5_73 + 491 x_5_74 + 531 x_5_75
   + 515 x_5_76 + 536 x_5_77 + 505 x_5_78 + 547 x_5_79 + 510 x_5_80
   + 475 x_5_81 + 537 x_5_82 + 526 x_5_83 + 484 x_5_84 + 481 x_5_85
   + 493 x_5_86 + 459 x_5_87 + 515 x_5_88 + 522 x_5_89 + 498 x_5_90
   + 533 x_5_91 + 514 x_5_92 + 563 x_5_93 + 544 x_5_94 + 528 x_5_95
   + 542 x_5_96 + 529 x_5_97 + 524 x_5_98 + 506 x_5_99 >= 8091.15
 c2b_1: 513 x_5_0 + 517 x_5_1 + 500 x_5_2 + 506 x_5_3 + 511 x_5_4
   + 507 x_5_5 + 506 x_5_6 + 520 x_5_7 + 505 x_5_8 + 529 x_5_9 + 465 x_5_10
   + 513 x_5_11 + 542 x_5_12 + 519 x_5_13 + 493 x_5_14 + 499 x_5_15
   + 486 x_5_16 + 514 x_5_17 + 489 x_5_18 + 540 x_5_19 + 512 x_5_20
   + 533 x_5_21 + 503 x_5_22 + 508 x_5_23 + 498 x_5_24 + 498 x_5_25
   + 506 x_5_26 + 494 x_5_27 + 515 x_5_28 + 498 x_5_29 + 482 x_5_30
   + 505 x_5_31 + 505 x_5_32 + 562 x_5_33 + 530 x_5_34 + 536 x_5_35
   + 490 x_5_36 + 515 x_5_37 + 492 x_5_38 + 496 x_5_39 + 514 x_5_40
   + 516 x_5_41 + 529 x_5_42 + 488 x_5_43 + 465 x_5_44 + 500 x_5_45
   + 526 x_5_46 + 497 x_5_47 + 507 x_5_48 + 546 x_5_49 + 512 x_5_50
   + 502 x_5_51 + 517 x_5_52 + 549 x_5_53 + 494 x_5_54 + 533 x_5_55
   + 513 x_5_56 + 513 x_5_57 + 476 x_5_58 + 530 x_5_59 + 493 x_5_60
   + 537 x_5_61 + 467 x_5_62 + 520 x_5_63 + 473 x_5_64 + 491 x_5_65
   + 487 x_5_66 + 544 x_5_67 + 544 x_5_68 + 504 x_5_69 + 509 x_5_70
   + 509 x_5_71 + 515 x_5_72 + 522 x_5_73 + 491 x_5_74 + 531 x_5_75
   + 515 x_5_76 + 536 x_5_77 + 505 x_5_78 + 547 x_5_79 + 510 x_5_80
   + 475 x_5_81 + 537 x_5_82 + 526 x_5_83 + 484 x_5_84 + 481 x_5_85
   + 493 x_5_86 + 459 x_5_87 + 515 x_5_88 + 522 x_5_89 + 498 x_5_90
   + 533 x_5_91 + 514 x_5_92 + 563 x_5_93 + 544 x_5_94 + 528 x_5_95
   + 542 x_5_96 + 529 x_5_97 + 524 x_5_98 + 506 x_5_99 <= 8942.85
 c2a_2: 513 x_73_0 + 517 x_73_1 + 500 x_73_2 + 506 x_73_3 + 511 x_73_4
   + 507 x_73_5 + 506 x_73_6 + 520 x_73_7 + 505 x_73_8 + 529 x_73_9
   + 465 x_73_10 + 513 x_73_11 + 542 x_73_12 + 519 x_73_13 + 493 x_73_14
   + 499 x_73_15 + 486 x_73_16 + 514 x_73_17 + 489 x_73_18 + 540 x_73_19
   + 512 x_73_20 + 533 x_73_21 + 503 x_73_22 + 508 x_73_23 + 498 x_73_24
   + 498 x_73_25 + 506 x_73_26 + 494 x_73_27 + 515 x_73_28 + 498 x_73_29
   + 482 x_73_30 + 505 x_73_31 + 505 x_73_32 + 562 x_73_33 + 530 x_73_34
   + 536 x_73_35 + 490 x_73_36 + 515 x_73_37 + 492 x_73_38 + 496 x_73_39
   + 514 x_73_40 + 516 x_73_41 + 529 x_73_42 + 488 x_73_43 + 465 x_73_44
   + 500 x_73_45 + 526 x_73_46 + 497 x_73_47 + 507 x_73_48 + 546 x_73_49
   + 512 x_73_50 + 502 x_73_51 + 517 x_73_52 + 549 x_73_53 + 494 x_73_54
   + 533 x_73_55 + 513 x_73_56 + 513 x_73_57 + 476 x_73_58 + 530 x_73_59
   + 493 x_73_60 + 537 x_73_61 + 467 x_73_62 + 520 x_73_63 + 473 x_73_64
   + 491 x_73_65 + 487 x_73_66 + 544 x_73_67 + 544 x_73_68 + 504 x_73_69
   + 509 x_73_70 + 509 x_73_71 + 515 x_73_72 + 522 x_73_73 + 491 x_73_74
   + 531 x_73_75 + 515 x_73_76 + 536 x_73_77 + 505 x_73_78 + 547 x_73_79
   + 510 x_73_80 + 475 x_73_81 + 537 x_73_82 + 526 x_73_83 + 484 x_73_84
   + 481 x_73_85 + 493 x_73_86 + 459 x_73_87 + 515 x_73_88 + 522 x_73_89
   + 498 x_73_90 + 533 x_73_91 + 514 x_73_92 + 563 x_73_93 + 544 x_73_94
   + 528 x_73_95 + 542 x_73_96 + 529 x_73_97 + 524 x_73_98 + 506 x_73_99
   >= 8091.15
 c2b_2: 513 x_73_0 + 517 x_73_1 + 500 x_73_2 + 506 x_73_3 + 511 x_73_4
   + 507 x_73_5 + 506 x_73_6 + 520 x_73_7 + 505 x_73_8 + 529 x_73_9
   + 465 x_73_10 + 513 x_73_11 + 542 x_73_12 + 519 x_73_13 + 493 x_73_14
   + 499 x_73_15 + 486 x_73_16 + 514 x_73_17 + 489 x_73_18 + 540 x_73_19
   + 512 x_73_20 + 533 x_73_21 + 503 x_73_22 + 508 x_73_23 + 498 x_73_24
   + 498 x_73_25 + 506 x_73_26 + 494 x_73_27 + 515 x_73_28 + 498 x_73_29
   + 482 x_73_30 + 505 x_73_31 + 505 x_73_32 + 562 x_73_33 + 530 x_73_34
   + 536 x_73_35 + 490 x_73_36 + 515 x_73_37 + 492 x_73_38 + 496 x_73_39
   + 514 x_73_40 + 516 x_73_41 + 529 x_73_42 + 488 x_73_43 + 465 x_73_44
   + 500 x_73_45 + 526 x_73_46 + 497 x_73_47 + 507 x_73_48 + 546 x_73_49
   + 512 x_73_50 + 502 x_73_51 + 517 x_73_52 + 549 x_73_53 + 494 x_73_54
   + 533 x_73_55 + 513 x_73_56 + 513 x_73_57 + 476 x_73_58 + 530 x_73_59
   + 493 x_73_60 + 537 x_73_61 + 467 x_73_62 + 520 x_73_63 + 473 x_73_64
   + 491 x_73_65 + 487 x_73_66 + 544 x_73_67 + 544 x_73_68 + 504 x_73_69
   + 509 x_73_70 + 509 x_73_71 + 515 x_73_72 + 522 x_73_73 + 491 x_73_74
   + 531 x_73_75 + 515 x_73_76 + 536 x_73_77 + 505 x_73_78 + 547 x_73_79
   + 510 x_73_80 + 475 x_73_81 + 537 x_73_82 + 526 x_73_83 + 484 x_73_84
   + 481 x_73_85 + 493 x_73_86 + 459 x_73_87 + 515 x_73_88 + 522 x_73_89
   + 498 x_73_90 + 533 x_73_91 + 514 x_73_92 + 563 x_73_93 + 544 x_73_94
   + 528 x_73_95 + 542 x_73_96 + 529 x_73_97 + 524 x_73_98 + 506 x_73_99
   <= 8942.85
 c2a_3: 513 x_25_0 + 517 x_25_1 + 500 x_25_2 + 506 x_25_3 + 511 x_25_4
   + 507 x_25_5 + 506 x_25_6 + 520 x_25_7 + 505 x_25_8 + 529 x_25_9
   + 465 x_25_10 + 513 x_25_11 + 542 x_25_12 + 519 x_25_13 + 493 x_25_14
   + 499 x_25_15 + 486 x_25_16 + 514 x_25_17 + 489 x_25_18 + 540 x_25_19
   + 512 x_25_20 + 533 x_25_21 + 503 x_25_22 + 508 x_25_23 + 498 x_25_24
   + 498 x_25_25 + 506 x_25_26 + 494 x_25_27 + 515 x_25_28 + 498 x_25_29
   + 482 x_25_30 + 505 x_25_31 + 505 x_25_32 + 562 x_25_33 + 530 x_25_34
   + 536 x_25_35 + 490 x_25_36 + 515 x_25_37 + 492 x_25_38 + 496 x_25_39
   + 514 x_25_40 + 516 x_25_41 + 529 x_25_42 + 488 x_25_43 + 465 x_25_44
   + 500 x_25_45 + 526 x_25_46 + 497 x_25_47 + 507 x_25_48 + 546 x_25_49
   + 512 x_25_50 + 502 x_25_51 + 517 x_25_52 + 549 x_25_53 + 494 x_25_54
   + 533 x_25_55 + 513 x_25_56 + 513 x_25_57 + 476 x_25_58 + 530 x_25_59
   + 493 x_25_60 + 537 x_25_61 + 467 x_25_62 + 520 x_25_63 + 473 x_25_64
   + 491 x_25_65 + 487 x_25_66 + 544 x_25_67 + 544 x_25_68 + 504 x_25_69
   + 509 x_25_70 + 509 x_25_71 + 515 x_25_72 + 522 x_25_73 + 491 x_25_74
   + 531 x_25_75 + 515 x_25_76 + 536 x_25_77 + 505 x_25_78 + 547 x_25_79
   + 510 x_25_80 + 475 x_25_81 + 537 x_25_82 + 526 x_25_83 + 484 x_25_84
   + 481 x_25_85 + 493 x_25_86 + 459 x_25_87 + 515 x_25_88 + 522 x_25_89
   + 498 x_25_90 + 533 x_25_91 + 514 x_25_92 + 563 x_25_93 + 544 x_25_94
   + 528 x_25_95 + 542 x_25_96 + 529 x_25_97 + 524 x_25_98 + 506 x_25_99
   >= 8091.15
 c2b_3: 513 x_25_0 + 517 x_25_1 + 500 x_25_2 + 506 x_25_3 + 511 x_25_4
   + 507 x_25_5 + 506 x_25_6 + 520 x_25_7 + 505 x_25_8 + 529 x_25_9
   + 465 x_25_10 + 513 x_25_11 + 542 x_25_12 + 519 x_25_13 + 493 x_25_14
   + 499 x_25_15 + 486 x_25_16 + 514 x_25_17 + 489 x_25_18 + 540 x_25_19
   + 512 x_25_20 + 533 x_25_21 + 503 x_25_22 + 508 x_25_23 + 498 x_25_24
   + 498 x_25_25 + 506 x_25_26 + 494 x_25_27 + 515 x_25_28 + 498 x_25_29
   + 482 x_25_30 + 505 x_25_31 + 505 x_25_32 + 562 x_25_33 + 530 x_25_34
   + 536 x_25_35 + 490 x_25_36 + 515 x_25_37 + 492 x_25_38 + 496 x_25_39
   + 514 x_25_40 + 516 x_25_41 + 529 x_25_42 + 488 x_25_43 + 465 x_25_44
   + 500 x_25_45 + 526 x_25_46 + 497 x_25_47 + 507 x_25_48 + 546 x_25_49
   + 512 x_25_50 + 502 x_25_51 + 517 x_25_52 + 549 x_25_53 + 494 x_25_54
   + 533 x_25_55 + 513 x_25_56 + 513 x_25_57 + 476 x_25_58 + 530 x_25_59
   + 493 x_25_60 + 537 x_25_61 + 467 x_25_62 + 520 x_25_63 + 473 x_25_64
   + 491 x_25_65 + 487 x_25_66 + 544 x_25_67 + 544 x_25_68 + 504 x_25_69
   + 509 x_25_70 + 509 x_25_71 + 515 x_25_72 + 522 x_25_73 + 491 x_25_74
   + 531 x_25_75 + 515 x_25_76 + 536 x_25_77 + 505 x_25_78 + 547 x_25_79
   + 510 x_25_80 + 475 x_25_81 + 537 x_25_82 + 526 x_25_83 + 484 x_25_84
   + 481 x_25_85 + 493 x_25_86 + 459 x_25_87 + 515 x_25_88 + 522 x_25_89
   + 498 x_25_90 + 533 x_25_91 + 514 x_25_92 + 563 x_25_93 + 544 x_25_94
   + 528 x_25_95 + 542 x_25_96 + 529 x_25_97 + 524 x_25_98 + 506 x_25_99
   <= 8942.85
 c2a_4: 513 x_67_0 + 517 x_67_1 + 500 x_67_2 + 506 x_67_3 + 511 x_67_4
   + 507 x_67_5 + 506 x_67_6 + 520 x_67_7 + 505 x_67_8 + 529 x_67_9
   + 465 x_67_10 + 513 x_67_11 + 542 x_67_12 + 519 x_67_13 + 493 x_67_14
   + 499 x_67_15 + 486 x_67_16 + 514 x_67_17 + 489 x_67_18 + 540 x_67_19
   + 512 x_67_20 + 533 x_67_21 + 503 x_67_22 + 508 x_67_23 + 498 x_67_24
   + 498 x_67_25 + 506 x_67_26 + 494 x_67_27 + 515 x_67_28 + 498 x_67_29
   + 482 x_67_30 + 505 x_67_31 + 505 x_67_32 + 562 x_67_33 + 530 x_67_34
   + 536 x_67_35 + 490 x_67_36 + 515 x_67_37 + 492 x_67_38 + 496 x_67_39
   + 514 x_67_40 + 516 x_67_41 + 529 x_67_42 + 488 x_67_43 + 465 x_67_44
   + 500 x_67_45 + 526 x_67_46 + 497 x_67_47 + 507 x_67_48 + 546 x_67_49
   + 512 x_67_50 + 502 x_67_51 + 517 x_67_52 + 549 x_67_53 + 494 x_67_54
   + 533 x_67_55 + 513 x_67_56 + 513 x_67_57 + 476 x_67_58 + 530 x_67_59
   + 493 x_67_60 + 537 x_67_61 + 467 x_67_62 + 520 x_67_63 + 473 x_67_64
   + 491 x_67_65 + 487 x_67_66 + 544 x_67_67 + 544 x_67_68 + 504 x_67_69
   + 509 x_67_70 + 509 x_67_71 + 515 x_67_72 + 522 x_67_73 + 491 x_67_74
   + 531 x_67_75 + 515 x_67_76 + 536 x_67_77 + 505 x_67_78 + 547 x_67_79
   + 510 x_67_80 + 475 x_67_81 + 537 x_67_82 + 526 x_67_83 + 484 x_67_84
   + 481 x_67_85 + 493 x_67_86 + 459 x_67_87 + 515 x_67_88 + 522 x_67_89
   + 498 x_67_90 + 533 x_67_91 + 514 x_67_92 + 563 x_67_93 + 544 x_67_94
   + 528 x_67_95 + 542 x_67_96 + 529 x_67_97 + 524 x_67_98 + 506 x_67_99
   >= 8091.15
 c2b_4: 513 x_67_0 + 517 x_67_1 + 500 x_67_2 + 506 x_67_3 + 511 x_67_4
   + 507 x_67_5 + 506 x_67_6 + 520 x_67_7 + 505 x_67_8 + 529 x_67_9
   + 465 x_67_10 + 513 x_67_11 + 542 x_67_12 + 519 x_67_13 + 493 x_67_14
   + 499 x_67_15 + 486 x_67_16 + 514 x_67_17 + 489 x_67_18 + 540 x_67_19
   + 512 x_67_20 + 533 x_67_21 + 503 x_67_22 + 508 x_67_23 + 498 x_67_24
   + 498 x_67_25 + 506 x_67_26 + 494 x_67_27 + 515 x_67_28 + 498 x_67_29
   + 482 x_67_30 + 505 x_67_31 + 505 x_67_32 + 562 x_67_33 + 530 x_67_34
   + 536 x_67_35 + 490 x_67_36 + 515 x_67_37 + 492 x_67_38 + 496 x_67_39
   + 514 x_67_40 + 516 x_67_41 + 529 x_67_42 + 488 x_67_43 + 465 x_67_44
   + 500 x_67_45 + 526 x_67_46 + 497 x_67_47 + 507 x_67_48 + 546 x_67_49
   + 512 x_67_50 + 502 x_67_51 + 517 x_67_52 + 549 x_67_53 + 494 x_67_54
   + 533 x_67_55 + 513 x_67_56 + 513 x_67_57 + 476 x_67_58 + 530 x_67_59
   + 493 x_67_60 + 537 x_67_61 + 467 x_67_62 + 520 x_67_63 + 473 x_67_64
   + 491 x_67_65 + 487 x_67_66 + 544 x_67_67 + 544 x_67_68 + 504 x_67_69
   + 509 x_67_70 + 509 x_67_71 + 515 x_67_72 + 522 x_67_73 + 491 x_67_74
   + 531 x_67_75 + 515 x_67_76 + 536 x_67_77 + 505 x_67_78 + 547 x_67_79
   + 510 x_67_80 + 475 x_67_81 + 537 x_67_82 + 526 x_67_83 + 484 x_67_84
   + 481 x_67_85 + 493 x_67_86 + 459 x_67_87 + 515 x_67_88 + 522 x_67_89
   + 498 x_67_90 + 533 x_67_91 + 514 x_67_92 + 563 x_67_93 + 544 x_67_94
   + 528 x_67_95 + 542 x_67_96 + 529 x_67_97 + 524 x_67_98 + 506 x_67_99
   <= 8942.85
 c2a_5: 513 x_53_0 + 517 x_53_1 + 500 x_53_2 + 506 x_53_3 + 511 x_53_4
   + 507 x_53_5 + 506 x_53_6 + 520 x_53_7 + 505 x_53_8 + 529 x_53_9
   + 465 x_53_10 + 513 x_53_11 + 542 x_53_12 + 519 x_53_13 + 493 x_53_14
   + 499 x_53_15 + 486 x_53_16 + 514 x_53_17 + 489 x_53_18 + 540 x_53_19
   + 512 x_53_20 + 533 x_53_21 + 503 x_53_22 + 508 x_53_23 + 498 x_53_24
   + 498 x_53_25 + 506 x_53_26 + 494 x_53_27 + 515 x_53_28 + 498 x_53_29
   + 482 x_53_30 + 505 x_53_31 + 505 x_53_32 + 562 x_53_33 + 530 x_53_34
   + 536 x_53_35 + 490 x_53_36 + 515 x_53_37 + 492 x_53_38 + 496 x_53_39
   + 514 x_53_40 + 516 x_53_41 + 529 x_53_42 + 488 x_53_43 + 465 x_53_44
   + 500 x_53_45 + 526 x_53_46 + 497 x_53_47 + 507 x_53_48 + 546 x_53_49
   + 512 x_53_50 + 502 x_53_51 + 517 x_53_52 + 549 x_53_53 + 494 x_53_54
   + 533 x_53_55 + 513 x_53_56 + 513 x_53_57 + 476 x_53_58 + 530 x_53_59
   + 493 x_53_60 + 537 x_53_61 + 467 x_53_62 + 520 x_53_63 + 473 x_53_64
   + 491 x_53_65 + 487 x_53_66 + 544 x_53_67 + 544 x_53_68 + 504 x_53_69
   + 509 x_53_70 + 509 x_53_71 + 515 x_53_72 + 522 x_53_73 + 491 x_53_74
   + 531 x_53_75 + 515 x_53_76 + 536 x_53_77 + 505 x_53_78 + 547 x_53_79
   + 510 x_53_80 + 475 x_53_81 + 537 x_53_82 + 526 x_53_83 + 484 x_53_84
   + 481 x_53_85 + 493 x_53_86 + 459 x_53_87 + 515 x_53_88 + 522 x_53_89
   + 498 x_53_90 + 533 x_53_91 + 514 x_53_92 + 563 x_53_93 + 544 x_53_94
   + 528 x_53_95 + 542 x_53_96 + 529 x_53_97 + 524 x_53_98 + 506 x_53_99
   >= 8091.15
 c2b_5: 513 x_53_0 + 517 x_53_1 + 500 x_53_2 + 506 x_53_3 + 511 x_53_4
   + 507 x_53_5 + 506 x_53_6 + 520 x_53_7 + 505 x_53_8 + 529 x_53_9
   + 465 x_53_10 + 513 x_53_11 + 542 x_53_12 + 519 x_53_13 + 493 x_53_14
   + 499 x_53_15 + 486 x_53_16 + 514 x_53_17 + 489 x_53_18 + 540 x_53_19
   + 512 x_53_20 + 533 x_53_21 + 503 x_53_22 + 508 x_53_23 + 498 x_53_24
   + 498 x_53_25 + 506 x_53_26 + 494 x_53_27 + 515 x_53_28 + 498 x_53_29
   + 482 x_53_30 + 505 x_53_31 + 505 x_53_32 + 562 x_53_33 + 530 x_53_34
   + 536 x_53_35 + 490 x_53_36 + 515 x_53_37 + 492 x_53_38 + 496 x_53_39
   + 514 x_53_40 + 516 x_53_41 + 529 x_53_42 + 488 x_53_43 + 465 x_53_44
   + 500 x_53_45 + 526 x_53_46 + 497 x_53_47 + 507 x_53_48 + 546 x_53_49
   + 512 x_53_50 + 502 x_53_51 + 517 x_53_52 + 549 x_53_53 + 494 x_53_54
   + 533 x_53_55 + 513 x_53_56 + 513 x_53_57 + 476 x_53_58 + 530 x_53_59
   + 493 x_53_60 + 537 x_53_61 + 467 x_53_62 + 520 x_53_63 + 473 x_53_64
   + 491 x_53_65 + 487 x_53_66 + 544 x_53_67 + 544 x_53_68 + 504 x_53_69
   + 509 x_53_70 + 509 x_53_71 + 515 x_53_72 + 522 x_53_73 + 491 x_53_74
   + 531 x_53_75 + 515 x_53_76 + 536 x_53_77 + 505 x_53_78 + 547 x_53_79
   + 510 x_53_80 + 475 x_53_81 + 537 x_53_82 + 526 x_53_83 + 484 x_53_84
   + 481 x_53_85 + 493 x_53_86 + 459 x_53_87 + 515 x_53_88 + 522 x_53_89
   + 498 x_53_90 + 533 x_53_91 + 514 x_53_92 + 563 x_53_93 + 544 x_53_94
   + 528 x_53_95 + 542 x_53_96 + 529 x_53_97 + 524 x_53_98 + 506 x_53_99
   <= 8942.85
 violated_4: - x_67_15 + x_67_51 + x_67_55 + x_67_62 + x_67_76 >= 0
 violated_1: x_5_1 - x_5_92 >= 0
Bounds
 x_49_49 = 1
 x_5_5 = 1
 x_73_73 = 1
 x_25_25 = 1
 x_67_67 = 1
 x_53_53 = 1
Binaries
 x_49_0 x_49_1 x_49_2 x_49_3 x_49_4 x_49_5 x_49_6 x_49_7 x_49_8 x_49_9
 x_49_10 x_49_11 x_49_12 x_49_13 x_49_14 x_49_15 x_49_16 x_49_17 x_49_18
 x_49_19 x_49_20 x_49_21 x_49_22 x_49_23 x_49_24 x_49_25 x_49_26 x_49_27
 x_49_28 x_49_29 x_49_30 x_49_31 x_49_32 x_49_33 x_49_34 x_49_35 x_49_36
 x_49_37 x_49_38 x_49_39 x_49_40 x_49_41 x_49_42 x_49_43 x_49_44 x_49_45
 x_49_46 x_49_47 x_49_48 x_49_49 x_49_50 x_49_51 x_49_52 x_49_53 x_49_54
 x_49_55 x_49_56 x_49_57 x_49_58 x_49_59 x_49_60 x_49_61 x_49_62 x_49_63
 x_49_64 x_49_65 x_49_66 x_49_67 x_49_68 x_49_69 x_49_70 x_49_71 x_49_72
 x_49_73 x_49_74 x_49_75 x_49_76 x_49_77 x_49_78 x_49_79 x_49_80 x_49_81
 x_49_82 x_49_83 x_49_84 x_49_85 x_49_86 x_49_87 x_49_88 x_49_89 x_49_90
 x_49_91 x_49_92 x_49_93 x_49_94 x_49_95 x_49_96 x_49_97 x_49_98 x_49_99
 x_5_0 x_5_1 x_5_2 x_5_3 x_5_4 x_5_5 x_5_6 x_5_7 x_5_8 x_5_9 x_5_10 x_5_11
 x_5_12 x_5_13 x_5_14 x_5_15 x_5_16 x_5_17 x_5_18 x_5_19 x_5_20 x_5_21
 x_5_22 x_5_23 x_5_24 x_5_25 x_5_26 x_5_27 x_5_28 x_5_29 x_5_30 x_5_31
 x_5_32 x_5_33 x_5_34 x_5_35 x_5_36 x_5_37 x_5_38 x_5_39 x_5_40 x_5_41
 x_5_42 x_5_43 x_5_44 x_5_45 x_5_46 x_5_47 x_5_48 x_5_49 x_5_50 x_5_51
 x_5_52 x_5_53 x_5_54 x_5_55 x_5_56 x_5_57 x_5_58 x_5_59 x_5_60 x_5_61
 x_5_62 x_5_63 x_5_64 x_5_65 x_5_66 x_5_67 x_5_68 x_5_69 x_5_70 x_5_71
 x_5_72 x_5_73 x_5_74 x_5_75 x_5_76 x_5_77 x_5_78 x_5_79 x_5_80 x_5_81
 x_5_82 x_5_83 x_5_84 x_5_85 x_5_86 x_5_87 x_5_88 x_5_89 x_5_90 x_5_91
 x_5_92 x_5_93 x_5_94 x_5_95 x_5_96 x_5_97 x_5_98 x_5_99 x_73_0 x_73_1
 x_73_2 x_73_3 x_73_4 x_73_5 x_73_6 x_73_7 x_73_8 x_73_9 x_73_10 x_73_11
 x_73_12 x_73_13 x_73_14 x_73_15 x_73_16 x_73_17 x_73_18 x_73_19 x_73_20
 x_73_21 x_73_22 x_73_23 x_73_24 x_73_25 x_73_26 x_73_27 x_73_28 x_73_29
 x_73_30 x_73_31 x_73_32 x_73_33 x_73_34 x_73_35 x_73_36 x_73_37 x_73_38
 x_73_39 x_73_40 x_73_41 x_73_42 x_73_43 x_73_44 x_73_45 x_73_46 x_73_47
 x_73_48 x_73_49 x_73_50 x_73_51 x_73_52 x_73_53 x_73_54 x_73_55 x_73_56
 x_73_57 x_73_58 x_73_59 x_73_60 x_73_61 x_73_62 x_73_63 x_73_64 x_73_65
 x_73_66 x_73_67 x_73_68 x_73_69 x_73_70 x_73_71 x_73_72 x_73_73 x_73_74
 x_73_75 x_73_76 x_73_77 x_73_78 x_73_79 x_73_80 x_73_81 x_73_82 x_73_83
 x_73_84 x_73_85 x_73_86 x_73_87 x_73_88 x_73_89 x_73_90 x_73_91 x_73_92
 x_73_93 x_73_94 x_73_95 x_73_96 x_73_97 x_73_98 x_73_99 x_25_0 x_25_1
 x_25_2 x_25_3 x_25_4 x_25_5 x_25_6 x_25_7 x_25_8 x_25_9 x_25_10 x_25_11
 x_25_12 x_25_13 x_25_14 x_25_15 x_25_16 x_25_17 x_25_18 x_25_19 x_25_20
 x_25_21 x_25_22 x_25_23 x_25_24 x_25_25 x_25_26 x_25_27 x_25_28 x_25_29
 x_25_30 x_25_31 x_25_32 x_25_33 x_25_34 x_25_35 x_25_36 x_25_37 x_25_38
 x_25_39 x_25_40 x_25_41 x_25_42 x_25_43 x_25_44 x_25_45 x_25_46 x_25_47
 x_25_48 x_25_49 x_25_50 x_25_51 x_25_52 x_25_53 x_25_54 x_25_55 x_25_56
 x_25_57 x_25_58 x_25_59 x_25_60 x_25_61 x_25_62 x_25_63 x_25_64 x_25_65
 x_25_66 x_25_67 x_25_68 x_25_69 x_25_70 x_25_71 x_25_72 x_25_73 x_25_74
 x_25_75 x_25_76 x_25_77 x_25_78 x_25_79 x_25_80 x_25_81 x_25_82 x_25_83
 x_25_84 x_25_85 x_25_86 x_25_87 x_25_88 x_25_89 x_25_90 x_25_91 x_25_92
 x_25_93 x_25_94 x_25_95 x_25_96 x_25_97 x_25_98 x_25_99 x_67_0 x_67_1
 x_67_2 x_67_3 x_67_4 x_67_5 x_67_6 x_67_7 x_67_8 x_67_9 x_67_10 x_67_11
 x_67_12 x_67_13 x_67_14 x_67_15 x_67_16 x_67_17 x_67_18 x_67_19 x_67_20
 x_67_21 x_67_22 x_67_23 x_67_24 x_67_25 x_67_26 x_67_27 x_67_28 x_67_29
 x_67_30 x_67_31 x_67_32 x_67_33 x_67_34 x_67_35 x_67_36 x_67_37 x_67_38
 x_67_39 x_67_40 x_67_41 x_67_42 x_67_43 x_67_44 x_67_45 x_67_46 x_67_47
 x_67_48 x_67_49 x_67_50 x_67_51 x_67_52 x_67_53 x_67_54 x_67_55 x_67_56
 x_67_57 x_67_58 x_67_59 x_67_60 x_67_61 x_67_62 x_67_63 x_67_64 x_67_65
 x_67_66 x_67_67 x_67_68 x_67_69 x_67_70 x_67_71 x_67_72 x_67_73 x_67_74
 x_67_75 x_67_76 x_67_77 x_67_78 x_67_79 x_67_80 x_67_81 x_67_82 x_67_83
 x_67_84 x_67_85 x_67_86 x_67_87 x_67_88 x_67_89 x_67_90 x_67_91 x_67_92
 x_67_93 x_67_94 x_67_95 x_67_96 x_67_97 x_67_98 x_67_99 x_53_0 x_53_1
 x_53_2 x_53_3 x_53_4 x_53_5 x_53_6 x_53_7 x_53_8 x_53_9 x_53_10 x_53_11
 x_53_12 x_53_13 x_53_14 x_53_15 x_53_16 x_53_17 x_53_18 x_53_19 x_53_20
 x_53_21 x_53_22 x_53_23 x_53_24 x_53_25 x_53_26 x_53_27 x_53_28 x_53_29
 x_53_30 x_53_31 x_53_32 x_53_33 x_53_34 x_53_35 x_53_36 x_53_37 x_53_38
 x_53_39 x_53_40 x_53_41 x_53_42 x_53_43 x_53_44 x_53_45 x_53_46 x_53_47
 x_53_48 x_53_49 x_53_50 x_53_51 x_53_52 x_53_53 x_53_54 x_53_55 x_53_56
 x_53_57 x_53_58 x_53_59 x_53_60 x_53_61 x_53_62 x_53_63 x_53_64 x_53_65
 x_53_66 x_53_67 x_53_68 x_53_69 x_53_70 x_53_71 x_53_72 x_53_73 x_53_74
 x_53_75 x_53_76 x_53_77 x_53_78 x_53_79 x_53_80 x_53_81 x_53_82 x_53_83
 x_53_84 x_53_85 x_53_86 x_53_87 x_53_88 x_53_89 x_53_90 x_53_91 x_53_92
 x_53_93 x_53_94 x_53_95 x_53_96 x_53_97 x_53_98 x_53_99
End
